c Random generated cnf formula, satisfiable: false
p cnf 10 50
3 10 4 0
7 2 9 0
-6 3 8 0
1 3 -6 0
4 -3 9 0
7 1 5 0
-4 1 6 0
-8 6 -1 0
10 -9 4 0
6 -5 -10 0
1 4 10 0
4 -10 2 0
1 4 2 0
-4 7 8 0
3 -1 9 0
-4 8 -7 0
-2 -10 8 0
-1 -6 -7 0
-3 -2 9 0
-1 5 6 0
-6 7 -9 0
-6 -10 2 0
-3 2 -10 0
5 -4 8 0
-8 9 4 0
-7 -2 8 0
-6 -8 -4 0
4 -9 1 0
-3 -1 -10 0
-9 -6 -4 0
-9 -7 -8 0
7 10 8 0
-8 -10 -2 0
6 -7 -5 0
-7 2 1 0
6 -10 3 0
7 -1 -5 0
9 7 -5 0
5 -4 6 0
10 -5 6 0
-4 5 -6 0
-10 5 3 0
-4 9 -2 0
-3 10 2 0
10 5 -9 0
-10 5 -9 0
-4 -7 -6 0
-6 -10 2 0
-6 3 10 0
4 10 8 0
